peakDumbCharging = 7400; 
Machine = anon_enum(16); 
machineSpeed = [3700,3700,3700,3700,3700,3700,3700,3700,3700,3700,3700,3700,3700,3700,3700,3700]; 
machineLoad = [3700,3700,3700,3700,3700,3700,3700,3700,3700,3700,3700,3700,3700,3700,3700,3700]; 
Car = anon_enum(7); 
demandCar = [21720,11080,10840,12200,8320,8840,10880]; 
arrivalCar = [60,56,55,47,45,42,29]; 
departureCar = [72,62,60,52,49,45,33]; 
